NAME : XML100_3163_04
DIMENSION : 101
NB_CLUSTERS : 4
CLUSTERING_ALG : KMedoids
CLUSTERING_PARAMS : k(3)
CLUSTERS
1 0
2 2 11 12 13 14 19 33 34 37 38 43 44 51 55 61 63 65 66 77 80 82 83 84 90 93
3 1 3 6 9 16 17 22 24 28 29 31 32 36 39 41 42 48 49 50 52 53 54 56 58 59 60 62 64 71 73 74 75 76 81 85 87 88 92 94 95 96 97 98
4 4 5 7 8 10 15 18 20 21 23 25 26 27 30 35 40 45 46 47 57 67 68 69 70 72 78 79 86 89 91 99 100
EOF